c Result of efficient AIG-to-CNF conversion using package CNF
p cnf 707 2523
-2 3 -576 0
-2 576 -690 0
-2 576 591 0
2 -3 -576 0
2 576 -591 690 0
-3 4 301 387 574 0
3 -574 0
3 -387 0
3 -4 0
3 -301 0
-4 5 18 0
4 -5 0
4 -18 0
5 -7 -17 0
5 -6 -17 0
-5 17 0
-5 6 7 0
6 -697 -705 0
-6 697 0
-6 705 0
7 -8 -14 0
-7 8 0
-7 14 0
-8 9 10 0
8 -9 0
8 -10 0
9 -696 -698 -704 -706 0
-9 706 0
-9 696 0
-9 704 0
-9 698 0
10 -6 -11 0
-10 6 0
-10 11 0
11 12 -13 0
11 -12 13 0
-11 -12 -13 0
-11 12 13 0
12 -696 -706 0
-12 696 0
-12 706 0
13 -698 -704 0
-13 698 0
-13 704 0
-14 -15 -16 0
-14 15 16 0
14 15 -16 0
14 -15 16 0
15 -697 -706 0
-15 697 0
-15 706 0
16 -698 -705 0
-16 698 0
-16 705 0
17 -698 -706 0
-17 698 0
-17 706 0
18 -19 -299 0
-18 19 0
-18 299 0
-19 20 46 0
19 -20 0
19 -46 0
20 -21 -45 0
-20 21 0
-20 45 0
-21 22 30 0
21 -22 0
21 -30 0
22 -23 -29 0
-22 23 0
-22 29 0
-23 24 25 0
23 -24 0
23 -25 0
24 -695 -698 -703 -706 0
-24 706 0
-24 695 0
-24 703 0
-24 698 0
25 -697 -704 -26 0
-25 697 0
-25 704 0
-25 26 0
26 27 -28 0
26 -27 28 0
-26 -27 -28 0
-26 27 28 0
27 -695 -706 0
-27 695 0
-27 706 0
28 -698 -703 0
-28 698 0
-28 703 0
29 6 -11 0
29 -6 11 0
-29 -6 -11 0
-29 6 11 0
30 -31 -44 0
-30 31 0
-30 44 0
-31 32 36 0
31 -32 0
31 -36 0
32 -33 -34 0
-32 33 0
-32 34 0
33 -696 -705 0
-33 696 0
-33 705 0
34 35 -26 0
34 -35 26 0
-34 -35 -26 0
-34 35 26 0
35 -697 -704 0
-35 697 0
-35 704 0
36 -37 -43 0
-36 37 0
-36 43 0
-37 38 39 0
37 -38 0
37 -39 0
38 -694 -698 -702 -706 0
-38 706 0
-38 694 0
-38 702 0
-38 698 0
39 -697 -703 -40 0
-39 697 0
-39 703 0
-39 40 0
40 41 -42 0
40 -41 42 0
-40 -41 -42 0
-40 41 42 0
41 -694 -706 0
-41 694 0
-41 706 0
42 -698 -702 0
-42 698 0
-42 702 0
43 33 -34 0
43 -33 34 0
-43 -33 -34 0
-43 33 34 0
44 23 -29 0
44 -23 29 0
-44 -23 -29 0
-44 23 29 0
45 -8 14 0
45 8 -14 0
-45 8 14 0
-45 -8 -14 0
46 -47 -298 0
-46 47 0
-46 298 0
-47 48 82 0
47 -48 0
47 -82 0
48 -49 -81 0
-48 49 0
-48 81 0
-49 50 59 0
49 -50 0
49 -59 0
50 -51 -58 0
-50 51 0
-50 58 0
-51 52 55 0
51 -52 0
51 -55 0
52 -695 -705 -53 0
-52 695 0
-52 705 0
-52 53 0
53 54 -40 0
53 -54 40 0
-53 -54 -40 0
-53 54 40 0
54 -697 -703 0
-54 697 0
-54 703 0
55 -696 -704 -56 0
-55 696 0
-55 704 0
-55 56 0
56 57 -53 0
56 -57 53 0
-56 -57 -53 0
-56 57 53 0
57 -695 -705 0
-57 695 0
-57 705 0
58 37 -43 0
58 -37 43 0
-58 -37 -43 0
-58 37 43 0
59 -60 -80 0
-59 60 0
-59 80 0
-60 61 71 0
60 -61 0
60 -71 0
61 -62 -69 0
-61 62 0
-61 69 0
-62 63 66 0
62 -63 0
62 -66 0
63 -693 -706 -64 0
-63 693 0
-63 706 0
-63 64 0
64 -701 -65 0
-64 701 0
-64 65 0
65 -697 -698 -699 -700 0
-65 700 0
-65 697 0
-65 699 0
-65 698 0
66 -698 -701 -67 0
-66 698 0
-66 701 0
-66 67 0
67 68 -64 0
67 -68 64 0
-67 -68 -64 0
-67 68 64 0
68 -693 -706 0
-68 693 0
-68 706 0
69 70 -56 0
69 -70 56 0
-69 -70 -56 0
-69 70 56 0
70 -696 -704 0
-70 696 0
-70 704 0
71 -72 -79 0
-71 72 0
-71 79 0
-72 73 76 0
72 -73 0
72 -76 0
73 -696 -703 -74 0
-73 696 0
-73 703 0
-73 74 0
74 75 -67 0
74 -75 67 0
-74 -75 -67 0
-74 75 67 0
75 -698 -701 0
-75 698 0
-75 701 0
76 -697 -702 -77 0
-76 697 0
-76 702 0
-76 77 0
77 78 -74 0
77 -78 74 0
-77 -78 -74 0
-77 78 74 0
78 -696 -703 0
-78 696 0
-78 703 0
79 62 -69 0
79 -62 69 0
-79 -62 -69 0
-79 62 69 0
80 51 -58 0
80 -51 58 0
-80 -51 -58 0
-80 51 58 0
81 31 -44 0
81 -31 44 0
-81 -31 -44 0
-81 31 44 0
82 -83 -297 0
-82 83 0
-82 297 0
-83 84 122 0
83 -84 0
83 -122 0
84 -85 -121 0
-84 85 0
-84 121 0
-85 86 96 0
85 -86 0
85 -96 0
86 -87 -95 0
-86 87 0
-86 95 0
-87 88 89 0
87 -88 0
87 -89 0
88 -694 -695 -704 -705 0
-88 705 0
-88 694 0
-88 704 0
-88 695 0
89 -90 -92 0
-89 90 0
-89 92 0
90 91 -77 0
90 -91 77 0
-90 -91 -77 0
-90 91 77 0
91 -697 -702 0
-91 697 0
-91 702 0
92 93 -94 0
92 -93 94 0
-92 -93 -94 0
-92 93 94 0
93 -694 -705 0
-93 694 0
-93 705 0
94 -695 -704 0
-94 695 0
-94 704 0
95 72 -79 0
95 -72 79 0
-95 -72 -79 0
-95 72 79 0
96 -97 -120 0
-96 97 0
-96 120 0
-97 98 111 0
97 -98 0
97 -111 0
98 -99 -110 0
-98 99 0
-98 110 0
-99 100 101 0
99 -100 0
99 -101 0
100 -693 -696 -702 -705 0
-100 705 0
-100 693 0
-100 702 0
-100 696 0
101 -102 -107 0
-101 102 0
-101 107 0
102 103 -104 0
102 -103 104 0
-102 -103 -104 0
-102 103 104 0
103 -692 -706 0
-103 692 0
-103 706 0
104 105 -106 0
104 -105 106 0
-104 -105 -106 0
-104 105 106 0
105 -695 -703 0
-105 695 0
-105 703 0
106 701 -65 0
106 -697 -701 65 0
-106 697 -701 0
-106 701 65 0
-106 -701 -65 0
107 108 -109 0
107 -108 109 0
-107 -108 -109 0
-107 108 109 0
108 -696 -702 0
-108 696 0
-108 702 0
109 -693 -705 0
-109 693 0
-109 705 0
110 90 -92 0
110 -90 92 0
-110 -90 -92 0
-110 90 92 0
111 -112 -119 0
-111 112 0
-111 119 0
-112 113 114 0
112 -113 0
112 -114 0
113 -694 -698 -700 -704 0
-113 704 0
-113 694 0
-113 700 0
-113 698 0
114 -115 -116 0
-114 115 0
-114 116 0
115 102 -107 0
115 -102 107 0
-115 -102 -107 0
-115 102 107 0
116 117 -118 0
116 -117 118 0
-116 -117 -118 0
-116 117 118 0
117 -698 -700 0
-117 698 0
-117 700 0
118 -694 -704 0
-118 694 0
-118 704 0
119 99 -110 0
119 -99 110 0
-119 -99 -110 0
-119 99 110 0
120 87 -95 0
120 -87 95 0
-120 -87 -95 0
-120 87 95 0
121 60 -80 0
121 -60 80 0
-121 -60 -80 0
-121 60 80 0
122 -123 -296 0
-122 123 0
-122 296 0
-123 124 163 0
123 -124 0
123 -163 0
124 -125 -162 0
-124 125 0
-124 162 0
-125 126 131 0
125 -126 0
125 -131 0
126 -127 -130 0
-126 127 0
-126 130 0
-127 128 129 0
127 -128 0
127 -129 0
128 -695 -703 -106 0
-128 695 0
-128 703 0
-128 106 0
129 -692 -706 -104 0
-129 692 0
-129 706 0
-129 104 0
130 112 -119 0
130 -112 119 0
-130 -112 -119 0
-130 112 119 0
131 -132 -161 0
-131 132 0
-131 161 0
-132 133 156 0
132 -133 0
132 -156 0
133 -134 -140 0
-133 134 0
-133 140 0
-134 135 136 0
134 -135 0
134 -136 0
135 -695 -696 -701 -702 0
-135 702 0
-135 695 0
-135 701 0
-135 696 0
136 -692 -705 -137 0
-136 692 0
-136 705 0
-136 137 0
137 138 -139 0
137 -138 139 0
-137 -138 -139 0
-137 138 139 0
138 -696 -701 0
-138 696 0
-138 701 0
139 -695 -702 0
-139 695 0
-139 702 0
-140 141 142 0
140 -141 0
140 -142 0
141 -691 -693 -704 -706 0
-141 706 0
-141 691 0
-141 704 0
-141 693 0
142 -143 -153 0
-142 143 0
-142 153 0
143 144 -150 0
143 -144 150 0
-143 -144 -150 0
-143 144 150 0
144 145 -146 0
144 -145 146 0
-144 -145 -146 0
-144 145 146 0
145 -694 -703 0
-145 694 0
-145 703 0
146 -696 -147 0
-146 696 0
-146 147 0
147 -695 -700 -148 0
-147 695 0
-147 700 0
-147 148 0
148 -694 -149 0
-148 694 0
-148 149 0
149 -691 -693 -700 -702 0
-149 702 0
-149 691 0
-149 700 0
-149 693 0
150 151 -152 0
150 -151 152 0
-150 -151 -152 0
-150 151 152 0
151 -698 -699 0
-151 698 0
-151 699 0
152 -697 -700 0
-152 697 0
-152 700 0
153 154 -155 0
153 -154 155 0
-153 -154 -155 0
-153 154 155 0
154 -693 -704 0
-154 693 0
-154 704 0
155 -691 -706 0
-155 691 0
-155 706 0
156 -157 -160 0
-156 157 0
-156 160 0
-157 158 159 0
157 -158 0
157 -159 0
158 -694 -703 -146 0
-158 694 0
-158 703 0
-158 146 0
159 -144 -150 0
-159 144 0
-159 150 0
160 -134 140 0
160 134 -140 0
-160 134 140 0
-160 -134 -140 0
161 127 -130 0
161 -127 130 0
-161 -127 -130 0
-161 127 130 0
162 97 -120 0
162 -97 120 0
-162 -97 -120 0
-162 97 120 0
163 -164 -295 0
-163 164 0
-163 295 0
-164 165 186 0
164 -165 0
164 -186 0
165 -166 -185 0
-165 166 0
-165 185 0
-166 167 170 0
166 -167 0
166 -170 0
167 -168 -169 0
-167 168 0
-167 169 0
168 115 -116 0
168 -115 116 0
-168 -115 -116 0
-168 115 116 0
169 157 -160 0
169 -157 160 0
-169 -157 -160 0
-169 157 160 0
170 -171 -184 0
-170 171 0
-170 184 0
-171 172 176 0
171 -172 0
171 -176 0
172 -173 -175 0
-172 173 0
-172 175 0
173 174 -137 0
173 -174 137 0
-173 -174 -137 0
-173 174 137 0
174 -692 -705 0
-174 692 0
-174 705 0
175 143 -153 0
175 -143 153 0
-175 -143 -153 0
-175 143 153 0
176 -177 -183 0
-176 177 0
-176 183 0
-177 178 179 0
177 -178 0
177 -179 0
178 -693 -694 -702 -703 0
-178 703 0
-178 693 0
-178 702 0
-178 694 0
179 -692 -704 -180 0
-179 692 0
-179 704 0
-179 180 0
180 181 -182 0
180 -181 182 0
-180 -181 -182 0
-180 181 182 0
181 -694 -702 0
-181 694 0
-181 702 0
182 -693 -703 0
-182 693 0
-182 703 0
183 173 -175 0
183 -173 175 0
-183 -173 -175 0
-183 173 175 0
184 168 -169 0
184 -168 169 0
-184 -168 -169 0
-184 168 169 0
185 132 -161 0
185 -132 161 0
-185 -132 -161 0
-185 132 161 0
186 -187 -294 0
-186 187 0
-186 294 0
-187 188 210 0
187 -188 0
187 -210 0
188 -189 -209 0
-188 189 0
-188 209 0
-189 190 204 0
189 -190 0
189 -204 0
190 -191 -203 0
-190 191 0
-190 203 0
-191 192 195 0
191 -192 0
191 -195 0
192 -691 -705 -193 0
-192 691 0
-192 705 0
-192 193 0
193 194 -180 0
193 -194 180 0
-193 -194 -180 0
-193 194 180 0
194 -692 -704 0
-194 692 0
-194 704 0
195 -196 -201 0
-195 196 0
-195 201 0
196 197 -198 0
196 -197 198 0
-196 -197 -198 0
-196 197 198 0
197 -697 -699 0
-197 697 0
-197 699 0
198 199 -200 0
198 -199 200 0
-198 -199 -200 0
-198 199 200 0
199 -695 -701 0
-199 695 0
-199 701 0
200 696 -147 0
200 -696 -700 147 0
-200 -696 -147 0
-200 696 147 0
-200 -696 700 0
201 202 -193 0
201 -202 193 0
-201 -202 -193 0
-201 202 193 0
202 -691 -705 0
-202 691 0
-202 705 0
203 177 -183 0
203 -177 183 0
-203 -177 -183 0
-203 177 183 0
204 -205 -208 0
-204 205 0
-204 208 0
-205 206 207 0
205 -206 0
205 -207 0
206 -695 -701 -200 0
-206 695 0
-206 701 0
-206 200 0
207 -697 -699 -198 0
-207 697 0
-207 699 0
-207 198 0
208 191 -203 0
208 -191 203 0
-208 -191 -203 0
-208 191 203 0
209 171 -184 0
209 -171 184 0
-209 -171 -184 0
-209 171 184 0
210 -211 -293 0
-210 211 0
-210 293 0
-211 212 234 0
211 -212 0
211 -234 0
212 -213 -233 0
-212 213 0
-212 233 0
-213 214 223 0
213 -214 0
213 -223 0
214 -215 -222 0
-214 215 0
-214 222 0
-215 216 219 0
215 -216 0
215 -219 0
216 -694 -701 -217 0
-216 694 0
-216 701 0
-216 217 0
217 218 -148 0
217 -218 148 0
-217 -218 -148 0
-217 218 148 0
218 -695 -700 0
-218 695 0
-218 700 0
219 -696 -699 -220 0
-219 696 0
-219 699 0
-219 220 0
220 221 -217 0
220 -221 217 0
-220 -221 -217 0
-220 221 217 0
221 -694 -701 0
-221 694 0
-221 701 0
222 196 -201 0
222 -196 201 0
-222 -196 -201 0
-222 196 201 0
223 -224 -232 0
-223 224 0
-223 232 0
-224 225 226 0
224 -225 0
224 -226 0
225 -691 -693 -702 -704 0
-225 704 0
-225 691 0
-225 702 0
-225 693 0
226 -227 -229 0
-226 227 0
-226 229 0
227 228 -220 0
227 -228 220 0
-227 -228 -220 0
-227 228 220 0
228 -696 -699 0
-228 696 0
-228 699 0
229 230 -231 0
229 -230 231 0
-229 -230 -231 0
-229 230 231 0
230 -693 -702 0
-230 693 0
-230 702 0
231 -691 -704 0
-231 691 0
-231 704 0
232 215 -222 0
232 -215 222 0
-232 -215 -222 0
-232 215 222 0
233 205 -208 0
233 -205 208 0
-233 -205 -208 0
-233 205 208 0
234 -235 -292 0
-234 235 0
-234 292 0
-235 236 250 0
235 -236 0
235 -250 0
236 -237 -249 0
-236 237 0
-236 249 0
-237 238 240 0
237 -238 0
237 -240 0
238 -692 -703 -239 0
-238 692 0
-238 703 0
-238 239 0
239 227 -229 0
239 -227 229 0
-239 -227 -229 0
-239 227 229 0
240 -241 -247 0
-240 241 0
-240 247 0
-241 242 244 0
241 -242 0
241 -244 0
242 -693 -701 -243 0
-242 693 0
-242 701 0
-242 243 0
243 694 -149 0
243 -694 -700 149 0
-243 -694 -149 0
-243 694 149 0
-243 -694 700 0
244 -695 -699 -245 0
-244 695 0
-244 699 0
-244 245 0
245 246 -243 0
245 -246 243 0
-245 -246 -243 0
-245 246 243 0
246 -693 -701 0
-246 693 0
-246 701 0
247 248 -239 0
247 -248 239 0
-247 -248 -239 0
-247 248 239 0
248 -692 -703 0
-248 692 0
-248 703 0
249 224 -232 0
249 -224 232 0
-249 -224 -232 0
-249 224 232 0
250 -251 -291 0
-250 251 0
-250 291 0
-251 252 262 0
251 -252 0
251 -262 0
252 -253 -261 0
-252 253 0
-252 261 0
-253 254 255 0
253 -254 0
253 -255 0
254 -691 -692 -702 -703 0
-254 703 0
-254 691 0
-254 702 0
-254 692 0
255 -256 -258 0
-255 256 0
-255 258 0
256 257 -245 0
256 -257 245 0
-256 -257 -245 0
-256 257 245 0
257 -695 -699 0
-257 695 0
-257 699 0
258 259 -260 0
258 -259 260 0
-258 -259 -260 0
-258 259 260 0
259 -691 -703 0
-259 691 0
-259 703 0
260 -692 -702 0
-260 692 0
-260 702 0
261 241 -247 0
261 -241 247 0
-261 -241 -247 0
-261 241 247 0
262 -263 -290 0
-262 263 0
-262 290 0
-263 264 269 0
263 -264 0
263 -269 0
264 -265 -268 0
-264 265 0
-264 268 0
-265 266 267 0
265 -266 0
265 -267 0
266 -692 -694 -699 -701 0
-266 701 0
-266 692 0
-266 699 0
-266 694 0
267 -691 -692 -700 -701 0
-267 701 0
-267 691 0
-267 700 0
-267 692 0
268 256 -258 0
268 -256 258 0
-268 -256 -258 0
-268 256 258 0
269 -270 -289 0
-269 270 0
-269 289 0
-270 271 278 0
270 -271 0
270 -278 0
271 -272 -275 0
-271 272 0
-271 275 0
-272 274 -267 0
-272 273 274 0
-272 273 -267 0
-272 -273 -274 267 0
272 273 -274 267 0
272 -273 274 267 0
272 -273 -274 -267 0
273 -692 -701 0
-273 692 0
-273 701 0
274 -694 -699 0
-274 694 0
-274 699 0
275 276 -277 0
275 -276 277 0
-275 -276 -277 0
-275 276 277 0
276 -691 -702 0
-276 691 0
-276 702 0
277 -693 -700 0
-277 693 0
-277 700 0
278 -279 -288 0
-278 279 0
-278 288 0
-279 280 284 0
279 -280 0
279 -284 0
280 -693 -699 -281 0
-280 693 0
-280 699 0
-280 281 0
281 282 -283 0
281 -282 283 0
-281 -282 -283 0
-281 282 283 0
282 -692 -700 0
-282 692 0
-282 700 0
283 -691 -701 0
-283 691 0
-283 701 0
284 -285 -287 0
-284 285 0
-284 287 0
285 286 -281 0
285 -286 281 0
-285 -286 -281 0
-285 286 281 0
286 -693 -699 0
-286 693 0
-286 699 0
287 -691 -692 -699 -700 0
-287 700 0
-287 691 0
-287 699 0
-287 692 0
288 272 -275 0
288 -272 275 0
-288 -272 -275 0
-288 272 275 0
289 265 -268 0
289 -265 268 0
-289 -265 -268 0
-289 265 268 0
290 253 -261 0
290 -253 261 0
-290 -253 -261 0
-290 253 261 0
291 237 -249 0
291 -237 249 0
-291 -237 -249 0
-291 237 249 0
292 213 -233 0
292 -213 233 0
-292 -213 -233 0
-292 213 233 0
293 189 -209 0
293 -189 209 0
-293 -189 -209 0
-293 189 209 0
294 166 -185 0
294 -166 185 0
-294 -166 -185 0
-294 166 185 0
295 125 -162 0
295 -125 162 0
-295 -125 -162 0
-295 125 162 0
296 85 -121 0
296 -85 121 0
-296 -85 -121 0
-296 85 121 0
297 49 -81 0
297 -49 81 0
-297 -49 -81 0
-297 49 81 0
298 21 -45 0
298 -21 45 0
-298 -21 -45 0
-298 21 45 0
299 5 -300 0
-299 -5 0
-299 300 0
-300 7 17 0
300 -7 0
300 -17 0
301 -302 386 0
301 -384 386 0
-301 -386 0
-301 302 384 0
302 -303 383 0
302 -381 383 0
-302 -383 0
-302 303 381 0
303 -304 380 0
303 -376 380 0
-303 -380 0
-303 304 376 0
304 -305 375 0
304 -369 375 0
-304 -375 0
-304 305 369 0
305 -306 368 0
305 -364 368 0
-305 -368 0
-305 306 364 0
306 -307 363 0
306 -358 363 0
-306 -363 0
-306 307 358 0
307 -308 357 0
307 -314 357 0
-307 -357 0
-307 308 314 0
308 309 -313 0
-308 -309 0
-308 313 0
-309 103 310 311 312 0
309 -103 0
309 -312 0
309 -311 0
309 -310 0
-310 696 109 0
-310 702 109 0
310 -109 0
310 -696 -702 0
-311 694 117 0
-311 704 117 0
311 -117 0
311 -694 -704 0
-312 697 105 0
-312 701 105 0
312 -105 0
312 -697 -701 0
313 211 -293 0
313 -211 293 0
-313 -211 -293 0
-313 211 293 0
314 -315 356 0
314 -349 356 0
-314 -356 0
-314 315 349 0
315 -316 348 0
315 -321 348 0
-315 -348 0
-315 316 321 0
316 317 -320 0
-316 -317 0
-316 320 0
-317 194 318 202 319 0
317 -318 0
317 -202 0
317 -194 0
317 -319 0
-318 694 182 0
-318 702 182 0
318 -182 0
318 -694 -702 0
-319 696 197 199 0
-319 700 197 199 0
319 -199 0
319 -197 0
319 -696 -700 0
320 251 -291 0
320 -251 291 0
-320 -251 -291 0
-320 251 291 0
321 -322 347 0
321 -342 347 0
-321 -347 0
-321 322 342 0
322 -323 341 0
322 -336 341 0
-322 -341 0
-322 323 336 0
323 -324 335 0
323 -330 335 0
-323 -335 0
-323 324 330 0
324 -325 329 0
-324 325 0
-324 -329 0
325 326 -328 0
-325 -326 0
-325 328 0
-326 699 327 0
-326 693 327 0
326 -327 0
326 -693 -699 0
-327 691 282 0
-327 701 282 0
327 -282 0
327 -691 -701 0
328 285 -287 0
328 -285 287 0
-328 -285 -287 0
-328 285 287 0
329 -326 328 0
-329 326 0
-329 -328 0
330 331 -334 0
-330 -331 0
-330 334 0
-331 332 333 0
331 -332 0
331 -333 0
-332 694 273 0
-332 699 273 0
332 -273 0
332 -694 -699 0
-333 693 276 0
-333 700 276 0
333 -276 0
333 -693 -700 0
334 279 -288 0
334 -279 288 0
-334 -279 -288 0
-334 279 288 0
335 -331 334 0
-335 331 0
-335 -334 0
336 337 -340 0
-336 -337 0
-336 340 0
-337 246 338 257 339 0
337 -339 0
337 -257 0
337 -246 0
337 -338 0
338 -694 -700 0
-338 694 0
-338 700 0
-339 692 259 0
-339 702 259 0
339 -259 0
339 -692 -702 0
340 270 -289 0
340 -270 289 0
-340 -270 -289 0
-340 270 289 0
341 -337 340 0
-341 337 0
-341 -340 0
342 343 -346 0
-342 -343 0
-342 346 0
-343 692 344 345 0
-343 703 344 345 0
343 -345 0
343 -344 0
343 -692 -703 0
-344 691 230 0
-344 704 230 0
344 -230 0
344 -691 -704 0
-345 694 218 228 0
-345 701 218 228 0
345 -228 0
345 -218 0
345 -694 -701 0
346 263 -290 0
346 -263 290 0
-346 -263 -290 0
-346 263 290 0
347 -343 346 0
-347 343 0
-347 -346 0
348 -317 320 0
-348 317 0
-348 -320 0
349 350 -355 0
-349 -350 0
-349 355 0
-350 692 351 352 0
-350 705 351 352 0
350 -352 0
350 -351 0
350 -692 -705 0
-351 696 139 0
-351 701 139 0
351 -139 0
351 -696 -701 0
-352 694 353 354 0
-352 703 353 354 0
352 -354 0
352 -353 0
352 -694 -703 0
-353 697 151 0
-353 700 151 0
353 -151 0
353 -697 -700 0
-354 691 154 0
-354 706 154 0
354 -154 0
354 -691 -706 0
355 235 -292 0
355 -235 292 0
-355 -235 -292 0
-355 235 292 0
356 -350 355 0
-356 350 0
-356 -355 0
357 -309 313 0
-357 309 0
-357 -313 0
358 359 -362 0
-358 -359 0
-358 362 0
-359 697 360 361 0
-359 702 360 361 0
359 -361 0
359 -360 0
359 -697 -702 0
-360 694 94 0
-360 705 94 0
360 -94 0
360 -694 -705 0
-361 698 68 78 0
-361 701 68 78 0
361 -78 0
361 -68 0
361 -698 -701 0
362 187 -294 0
362 -187 294 0
-362 -187 -294 0
-362 187 294 0
363 -359 362 0
-363 359 0
-363 -362 0
364 365 -367 0
-364 -365 0
-364 367 0
-365 54 366 57 70 0
365 -366 0
365 -70 0
365 -54 0
365 -57 0
-366 694 42 0
-366 706 42 0
366 -42 0
366 -694 -706 0
367 164 -295 0
367 -164 295 0
-367 -164 -295 0
-367 164 295 0
368 -365 367 0
-368 365 0
-368 -367 0
369 370 -374 0
-369 -370 0
-369 374 0
-370 33 371 0
370 -33 0
370 -371 0
371 -372 373 0
371 -697 -704 373 0
-371 -373 0
-371 704 372 0
-371 697 372 0
-372 698 27 0
-372 703 27 0
372 -27 0
372 -698 -703 0
-373 698 15 0
-373 705 15 0
373 -15 0
373 -698 -705 0
374 123 -296 0
374 -123 296 0
-374 -123 -296 0
-374 123 296 0
375 -370 374 0
-375 370 0
-375 -374 0
376 377 -379 0
-376 -377 0
-376 379 0
-377 6 378 33 0
-377 6 378 371 0
377 -6 0
377 -378 0
377 -33 -371 0
-378 696 13 0
-378 706 13 0
378 -13 0
378 -696 -706 0
379 83 -297 0
379 -83 297 0
-379 -83 -297 0
-379 83 297 0
380 -377 379 0
-380 377 0
-380 -379 0
381 373 -382 0
-381 -373 0
-381 382 0
382 47 -298 0
382 -47 298 0
-382 -47 -298 0
-382 47 298 0
383 -373 382 0
-383 373 0
-383 -382 0
384 17 -385 0
-384 -17 0
-384 385 0
385 19 -299 0
385 -19 299 0
-385 -19 -299 0
-385 19 299 0
386 -17 385 0
-386 17 0
-386 -385 0
387 473 -529 0
387 -388 472 -529 0
387 388 -472 -529 0
-387 529 0
-387 -388 -472 -473 0
-387 388 472 -473 0
-388 389 393 0
388 -389 0
388 -393 0
389 -390 -391 0
-389 390 0
-389 391 0
-390 4 301 0
390 -4 0
390 -301 0
391 -302 392 0
391 302 -392 0
-391 302 392 0
-391 -302 -392 0
-392 384 386 0
392 -384 0
392 -386 0
393 -394 -471 0
-393 394 0
-393 471 0
-394 395 399 0
394 -395 0
394 -399 0
395 -396 -398 0
-395 396 0
-395 398 0
396 -303 397 0
396 303 -397 0
-396 303 397 0
-396 -303 -397 0
-397 381 383 0
397 -381 0
397 -383 0
398 4 -301 0
398 -4 301 0
-398 -4 -301 0
-398 4 301 0
399 -400 -470 0
-399 400 0
-399 470 0
-400 401 404 0
400 -401 0
400 -404 0
401 -391 -402 0
-401 391 0
-401 402 0
402 -304 403 0
402 304 -403 0
-402 304 403 0
-402 -304 -403 0
-403 376 380 0
403 -376 0
403 -380 0
404 -405 -469 0
-404 405 0
-404 469 0
-405 406 409 0
405 -406 0
405 -409 0
406 -396 -407 0
-406 396 0
-406 407 0
407 -305 408 0
407 305 -408 0
-407 305 408 0
-407 -305 -408 0
-408 369 375 0
408 -369 0
408 -375 0
409 -410 -468 0
-409 410 0
-409 468 0
-410 411 414 0
410 -411 0
410 -414 0
411 -402 -412 0
-411 402 0
-411 412 0
412 -306 413 0
412 306 -413 0
-412 306 413 0
-412 -306 -413 0
-413 364 368 0
413 -364 0
413 -368 0
414 -415 -467 0
-414 415 0
-414 467 0
-415 416 419 0
415 -416 0
415 -419 0
416 -407 -417 0
-416 407 0
-416 417 0
417 -307 418 0
417 307 -418 0
-417 307 418 0
-417 -307 -418 0
-418 358 363 0
418 -358 0
418 -363 0
419 -420 -466 0
-419 420 0
-419 466 0
-420 421 424 0
420 -421 0
420 -424 0
421 -412 -422 0
-421 412 0
-421 422 0
422 -314 423 0
422 314 -423 0
-422 314 423 0
-422 -314 -423 0
-423 308 357 0
423 -308 0
423 -357 0
424 -425 -465 0
-424 425 0
-424 465 0
-425 426 429 0
425 -426 0
425 -429 0
426 -417 -427 0
-426 417 0
-426 427 0
427 -315 428 0
427 315 -428 0
-427 315 428 0
-427 -315 -428 0
-428 349 356 0
428 -349 0
428 -356 0
429 -430 -464 0
-429 430 0
-429 464 0
-430 431 434 0
430 -431 0
430 -434 0
431 -422 -432 0
-431 422 0
-431 432 0
432 -321 433 0
432 321 -433 0
-432 321 433 0
-432 -321 -433 0
-433 316 348 0
433 -316 0
433 -348 0
434 -435 -463 0
-434 435 0
-434 463 0
-435 436 439 0
435 -436 0
435 -439 0
436 -427 -437 0
-436 427 0
-436 437 0
437 -322 438 0
437 322 -438 0
-437 322 438 0
-437 -322 -438 0
-438 342 347 0
438 -342 0
438 -347 0
439 -440 -462 0
-439 440 0
-439 462 0
-440 441 444 0
440 -441 0
440 -444 0
441 -432 -442 0
-441 432 0
-441 442 0
442 -323 443 0
442 323 -443 0
-442 323 443 0
-442 -323 -443 0
-443 336 341 0
443 -336 0
443 -341 0
444 -445 -461 0
-444 445 0
-444 461 0
-445 446 449 0
445 -446 0
445 -449 0
446 -437 -447 0
-446 437 0
-446 447 0
447 -324 448 0
447 324 -448 0
-447 324 448 0
-447 -324 -448 0
-448 330 335 0
448 -330 0
448 -335 0
449 -450 -460 0
-449 450 0
-449 460 0
-450 451 455 0
450 -451 0
450 -455 0
451 -442 -452 0
-451 442 0
-451 452 0
452 -453 0
-452 453 0
-453 454 0
453 -454 0
-454 325 329 0
454 -325 0
454 -329 0
455 -456 -459 0
-455 456 0
-455 459 0
456 -447 -457 0
-456 447 0
-456 457 0
-457 458 0
457 -458 0
458 -691 -692 -699 -700 0
-458 700 0
-458 691 0
-458 699 0
-458 692 0
459 442 -452 0
459 -442 452 0
-459 -442 -452 0
-459 442 452 0
460 437 -447 0
460 -437 447 0
-460 -437 -447 0
-460 437 447 0
461 432 -442 0
461 -432 442 0
-461 -432 -442 0
-461 432 442 0
462 427 -437 0
462 -427 437 0
-462 -427 -437 0
-462 427 437 0
463 422 -432 0
463 -422 432 0
-463 -422 -432 0
-463 422 432 0
464 417 -427 0
464 -417 427 0
-464 -417 -427 0
-464 417 427 0
465 412 -422 0
465 -412 422 0
-465 -412 -422 0
-465 412 422 0
466 407 -417 0
466 -407 417 0
-466 -407 -417 0
-466 407 417 0
467 402 -412 0
467 -402 412 0
-467 -402 -412 0
-467 402 412 0
468 396 -407 0
468 -396 407 0
-468 -396 -407 0
-468 396 407 0
469 391 -402 0
469 -391 402 0
-469 -391 -402 0
-469 391 402 0
470 396 -398 0
470 -396 398 0
-470 -396 -398 0
-470 396 398 0
471 390 -391 0
471 -390 391 0
-471 -390 -391 0
-471 390 391 0
472 -4 -301 0
-472 4 0
-472 301 0
-473 474 475 0
-473 4 474 0
473 -474 0
473 -4 -475 0
474 -5 -19 0
-474 5 0
-474 19 0
475 -476 -528 0
-475 476 0
-475 528 0
-476 477 478 0
476 -477 0
476 -478 0
477 -382 -385 0
-477 382 0
-477 385 0
478 -479 -527 0
-478 479 0
-478 527 0
-479 480 481 0
479 -480 0
479 -481 0
480 -379 -382 0
-480 379 0
-480 382 0
481 -482 -526 0
-481 482 0
-481 526 0
-482 483 484 0
482 -483 0
482 -484 0
483 -374 -379 0
-483 374 0
-483 379 0
484 -485 -525 0
-484 485 0
-484 525 0
-485 486 487 0
485 -486 0
485 -487 0
486 -367 -374 0
-486 367 0
-486 374 0
487 -488 -524 0
-487 488 0
-487 524 0
-488 489 490 0
488 -489 0
488 -490 0
489 -362 -367 0
-489 362 0
-489 367 0
490 -491 -523 0
-490 491 0
-490 523 0
-491 492 493 0
491 -492 0
491 -493 0
492 -313 -362 0
-492 313 0
-492 362 0
493 -494 -522 0
-493 494 0
-493 522 0
-494 495 496 0
494 -495 0
494 -496 0
495 -313 -355 0
-495 313 0
-495 355 0
496 -497 -521 0
-496 497 0
-496 521 0
-497 498 499 0
497 -498 0
497 -499 0
498 -320 -355 0
-498 320 0
-498 355 0
499 -500 -520 0
-499 500 0
-499 520 0
-500 501 502 0
500 -501 0
500 -502 0
501 -320 -346 0
-501 320 0
-501 346 0
502 -503 -519 0
-502 503 0
-502 519 0
-503 504 505 0
503 -504 0
503 -505 0
504 -340 -346 0
-504 340 0
-504 346 0
505 -506 -518 0
-505 506 0
-505 518 0
-506 507 508 0
506 -507 0
506 -508 0
507 -334 -340 0
-507 334 0
-507 340 0
508 -509 -517 0
-508 509 0
-508 517 0
-509 510 511 0
509 -510 0
509 -511 0
510 -328 -334 0
-510 328 0
-510 334 0
511 -512 -513 0
-511 512 0
-511 513 0
512 328 -334 0
512 -328 334 0
-512 -328 -334 0
-512 328 334 0
513 -285 -514 0
513 -691 -699 -514 0
-513 514 0
-513 691 285 0
-513 699 285 0
514 287 -515 0
-514 -287 0
-514 515 0
-515 692 516 0
-515 699 516 0
515 -516 0
515 -692 -699 0
516 -691 -700 0
-516 691 0
-516 700 0
517 334 -340 0
517 -334 340 0
-517 -334 -340 0
-517 334 340 0
518 340 -346 0
518 -340 346 0
-518 -340 -346 0
-518 340 346 0
519 320 -346 0
519 -320 346 0
-519 -320 -346 0
-519 320 346 0
520 320 -355 0
520 -320 355 0
-520 -320 -355 0
-520 320 355 0
521 313 -355 0
521 -313 355 0
-521 -313 -355 0
-521 313 355 0
522 313 -362 0
522 -313 362 0
-522 -313 -362 0
-522 313 362 0
523 362 -367 0
523 -362 367 0
-523 -362 -367 0
-523 362 367 0
524 367 -374 0
524 -367 374 0
-524 -367 -374 0
-524 367 374 0
525 374 -379 0
525 -374 379 0
-525 -374 -379 0
-525 374 379 0
526 379 -382 0
526 -379 382 0
-526 -379 -382 0
-526 379 382 0
527 382 -385 0
527 -382 385 0
-527 -382 -385 0
-527 382 385 0
528 19 -300 0
528 5 -19 0
-528 19 300 0
-528 -5 -19 0
-529 531 532 0
-529 473 -530 532 0
-529 473 -530 531 0
529 -473 -532 0
529 -531 -532 0
529 -473 -531 0
529 530 -531 0
529 530 -532 0
-530 4 475 0
530 -4 0
530 -475 0
531 394 -471 0
531 -394 471 0
-531 -394 -471 0
-531 394 471 0
532 -533 -535 0
532 -533 534 0
532 534 -535 0
-532 -534 535 0
-532 533 535 0
-532 533 -534 0
533 400 -470 0
533 -400 470 0
-533 -400 -470 0
-533 400 470 0
534 476 -528 0
534 -476 528 0
-534 -476 -528 0
-534 476 528 0
535 -536 -538 0
535 -536 537 0
535 537 -538 0
-535 -537 538 0
-535 536 538 0
-535 536 -537 0
536 405 -469 0
536 -405 469 0
-536 -405 -469 0
-536 405 469 0
537 479 -527 0
537 -479 527 0
-537 -479 -527 0
-537 479 527 0
538 -539 -541 0
538 -539 540 0
538 540 -541 0
-538 -540 541 0
-538 539 541 0
-538 539 -540 0
539 410 -468 0
539 -410 468 0
-539 -410 -468 0
-539 410 468 0
540 482 -526 0
540 -482 526 0
-540 -482 -526 0
-540 482 526 0
541 -542 -544 0
541 -542 543 0
541 543 -544 0
-541 -543 544 0
-541 542 544 0
-541 542 -543 0
542 415 -467 0
542 -415 467 0
-542 -415 -467 0
-542 415 467 0
543 485 -525 0
543 -485 525 0
-543 -485 -525 0
-543 485 525 0
544 -545 -547 0
544 -545 546 0
544 546 -547 0
-544 -546 547 0
-544 545 547 0
-544 545 -546 0
545 420 -466 0
545 -420 466 0
-545 -420 -466 0
-545 420 466 0
546 488 -524 0
546 -488 524 0
-546 -488 -524 0
-546 488 524 0
547 -548 -550 0
547 -548 549 0
547 549 -550 0
-547 -549 550 0
-547 548 550 0
-547 548 -549 0
548 425 -465 0
548 -425 465 0
-548 -425 -465 0
-548 425 465 0
549 491 -523 0
549 -491 523 0
-549 -491 -523 0
-549 491 523 0
550 -551 -553 0
550 -551 552 0
550 552 -553 0
-550 -552 553 0
-550 551 553 0
-550 551 -552 0
551 430 -464 0
551 -430 464 0
-551 -430 -464 0
-551 430 464 0
552 494 -522 0
552 -494 522 0
-552 -494 -522 0
-552 494 522 0
553 -554 -556 0
553 -554 555 0
553 555 -556 0
-553 -555 556 0
-553 554 556 0
-553 554 -555 0
554 435 -463 0
554 -435 463 0
-554 -435 -463 0
-554 435 463 0
555 497 -521 0
555 -497 521 0
-555 -497 -521 0
-555 497 521 0
556 -557 -559 0
556 -557 558 0
556 558 -559 0
-556 -558 559 0
-556 557 559 0
-556 557 -558 0
557 440 -462 0
557 -440 462 0
-557 -440 -462 0
-557 440 462 0
558 500 -520 0
558 -500 520 0
-558 -500 -520 0
-558 500 520 0
559 -560 573 0
559 -445 461 573 0
559 445 -461 573 0
559 445 -461 -560 0
559 -445 461 -560 0
-559 560 -573 0
-559 -445 -461 560 0
-559 -445 -461 -573 0
-559 445 461 560 0
-559 445 461 -573 0
-560 -561 562 0
-560 -450 -460 -561 0
-560 450 460 -561 0
-560 450 460 562 0
-560 -450 -460 562 0
560 561 -562 0
560 450 -460 -562 0
560 450 -460 561 0
560 -450 460 -562 0
560 -450 460 561 0
561 506 -518 0
561 -506 518 0
-561 -506 -518 0
-561 506 518 0
562 -563 -564 0
562 -564 572 0
562 -563 572 0
-562 564 -572 0
-562 563 564 0
-562 563 -572 0
563 456 -459 0
563 -456 459 0
-563 -456 -459 0
-563 456 459 0
564 -565 -566 0
564 -566 571 0
564 -565 571 0
-564 566 -571 0
-564 565 566 0
-564 565 -571 0
565 -447 457 0
565 447 -457 0
-565 447 457 0
-565 -447 -457 0
566 -452 -567 0
566 -567 569 0
566 -452 569 0
-566 452 -569 0
-566 567 -569 0
-566 452 567 0
567 -457 568 0
-567 457 0
-567 -568 0
568 691 -515 0
568 699 -515 0
568 -691 -699 514 0
-568 691 515 0
-568 -691 -699 -514 0
-568 699 515 0
-569 328 514 0
-569 -285 -514 570 0
-569 285 -514 -570 0
569 -328 514 0
569 -285 -514 -570 0
569 285 -514 570 0
570 -691 -699 0
-570 691 0
-570 699 0
571 512 -513 0
571 -512 513 0
-571 -512 -513 0
-571 512 513 0
572 509 -517 0
572 -509 517 0
-572 -509 -517 0
-572 509 517 0
573 503 -519 0
573 -503 519 0
-573 -503 -519 0
-573 503 519 0
574 -575 473 0
-574 575 0
-574 -473 0
-575 388 472 0
575 -388 0
575 -472 0
576 4 -577 0
-576 -4 0
-576 577 0
-577 386 578 0
577 -386 0
577 -578 0
578 384 -579 0
-578 -384 0
-578 579 0
-579 -381 383 0
-579 383 580 0
579 -383 0
579 381 -580 0
-580 -376 380 0
-580 380 581 0
580 -380 0
580 376 -581 0
-581 -369 375 0
-581 375 582 0
581 -375 0
581 369 -582 0
-582 -364 368 0
-582 368 583 0
582 -368 0
582 364 -583 0
-583 -358 363 0
-583 363 584 0
583 -363 0
583 358 -584 0
-584 -308 357 0
-584 357 585 0
584 -357 0
584 308 -585 0
-585 -349 356 0
-585 356 586 0
585 -356 0
585 349 -586 0
-586 -316 348 0
-586 348 587 0
586 -348 0
586 316 -587 0
-587 -342 347 0
-587 347 588 0
587 -347 0
587 342 -588 0
-588 -336 341 0
-588 341 589 0
588 -341 0
588 336 -589 0
-589 -330 335 0
-589 335 590 0
589 -335 0
589 330 -590 0
-590 -325 329 0
-590 458 329 0
590 -329 0
590 325 -458 0
-591 -473 592 687 0
-591 592 681 687 0
591 -687 0
591 -592 0
591 473 -681 0
592 537 -649 674 0
592 -593 -649 674 0
-592 -674 0
-592 649 0
-592 -537 593 0
593 -594 597 0
593 594 -597 0
-593 594 597 0
-593 -594 -597 0
594 -595 596 0
594 595 -596 0
-594 595 596 0
-594 -595 -596 0
-595 403 581 0
-595 -403 -581 0
595 -403 581 0
595 403 -581 0
-596 392 579 0
-596 -392 -579 0
596 -392 579 0
596 392 -579 0
-597 598 601 0
597 -598 0
597 -601 0
598 -599 -600 0
-598 599 0
-598 600 0
-599 408 582 0
-599 -408 -582 0
599 -408 582 0
599 408 -582 0
-600 397 580 0
-600 -397 -580 0
600 -397 580 0
600 397 -580 0
601 -602 -603 0
-601 602 0
-601 603 0
602 -599 600 0
602 599 -600 0
-602 599 600 0
-602 -599 -600 0
-603 604 606 0
603 -604 0
603 -606 0
604 -605 -595 0
-604 605 0
-604 595 0
-605 413 583 0
-605 -413 -583 0
605 -413 583 0
605 413 -583 0
606 -607 -608 0
-606 607 0
-606 608 0
607 -605 595 0
607 605 -595 0
-607 605 595 0
-607 -605 -595 0
-608 609 611 0
608 -609 0
608 -611 0
609 -599 -610 0
-609 599 0
-609 610 0
-610 418 584 0
-610 -418 -584 0
610 -418 584 0
610 418 -584 0
611 -612 -648 0
-611 612 0
-611 648 0
-612 613 615 0
612 -613 0
612 -615 0
613 -605 -614 0
-613 605 0
-613 614 0
-614 423 585 0
-614 -423 -585 0
614 -423 585 0
614 423 -585 0
615 -616 -647 0
-615 616 0
-615 647 0
-616 617 619 0
616 -617 0
616 -619 0
617 -610 -618 0
-617 610 0
-617 618 0
-618 428 586 0
-618 -428 -586 0
618 -428 586 0
618 428 -586 0
619 -620 -646 0
-619 620 0
-619 646 0
-620 621 623 0
620 -621 0
620 -623 0
621 -614 -622 0
-621 614 0
-621 622 0
-622 433 587 0
-622 -433 -587 0
622 -433 587 0
622 433 -587 0
623 -624 -645 0
-623 624 0
-623 645 0
-624 625 627 0
624 -625 0
624 -627 0
625 -618 -626 0
-625 618 0
-625 626 0
-626 438 588 0
-626 -438 -588 0
626 -438 588 0
626 438 -588 0
627 -628 -644 0
-627 628 0
-627 644 0
-628 629 631 0
628 -629 0
628 -631 0
629 -622 -630 0
-629 622 0
-629 630 0
-630 443 589 0
-630 -443 -589 0
630 -443 589 0
630 443 -589 0
631 -632 -643 0
-631 632 0
-631 643 0
-632 633 635 0
632 -633 0
632 -635 0
633 -626 -634 0
-633 626 0
-633 634 0
-634 448 590 0
-634 -448 -590 0
634 -448 590 0
634 448 -590 0
635 -636 -642 0
-635 636 0
-635 642 0
-636 637 639 0
636 -637 0
636 -639 0
637 -630 -638 0
-637 630 0
-637 638 0
-638 458 454 0
-638 -458 -454 0
638 -458 454 0
638 458 -454 0
639 -640 -641 0
-639 640 0
-639 641 0
640 -457 -634 0
-640 457 0
-640 634 0
641 -630 638 0
641 630 -638 0
-641 630 638 0
-641 -630 -638 0
642 -626 634 0
642 626 -634 0
-642 626 634 0
-642 -626 -634 0
643 -622 630 0
643 622 -630 0
-643 622 630 0
-643 -622 -630 0
644 -618 626 0
644 618 -626 0
-644 618 626 0
-644 -618 -626 0
645 -614 622 0
645 614 -622 0
-645 614 622 0
-645 -614 -622 0
646 -610 618 0
646 610 -618 0
-646 610 618 0
-646 -610 -618 0
647 -605 614 0
647 605 -614 0
-647 605 614 0
-647 -605 -614 0
648 -599 610 0
648 599 -610 0
-648 599 610 0
-648 -599 -610 0
-649 -537 650 673 0
-649 650 593 673 0
649 -673 0
649 -650 0
649 537 -593 0
650 543 -651 671 0
650 -651 -652 671 0
650 543 -652 671 0
-650 651 652 0
-650 -543 651 0
-650 -671 0
-650 -543 652 0
651 -607 608 0
651 607 -608 0
-651 607 608 0
-651 -607 -608 0
652 546 -653 0
652 -653 -654 0
652 546 -654 0
-652 653 654 0
-652 -546 653 0
-652 -546 654 0
653 612 -648 0
653 -612 648 0
-653 -612 -648 0
-653 612 648 0
654 549 -670 0
654 -655 -670 0
654 549 -655 0
654 -655 -656 0
654 549 -656 0
-654 -549 655 0
-654 -549 656 670 0
-654 655 656 670 0
655 616 -647 0
655 -616 647 0
-655 -616 -647 0
-655 616 647 0
656 552 -657 0
656 552 -658 0
-656 -552 0
-656 657 658 0
657 620 -646 0
657 -620 646 0
-657 -620 -646 0
-657 620 646 0
-658 -555 660 0
-658 -555 659 0
-658 659 660 0
658 -659 -660 0
658 555 -660 0
658 555 -659 0
659 624 -645 0
659 -624 645 0
-659 -624 -645 0
-659 624 645 0
-660 -558 661 0
-660 661 669 0
-660 -558 669 0
660 -661 -669 0
660 558 -661 0
660 558 -669 0
-661 -573 663 0
-661 -573 662 0
-661 662 663 0
661 -662 -663 0
661 573 -663 0
661 573 -662 0
662 632 -643 0
662 -632 643 0
-662 -632 -643 0
-662 632 643 0
-663 -561 664 0
-663 664 668 0
-663 -561 668 0
663 -664 -668 0
663 561 -664 0
663 561 -668 0
-664 -572 665 0
-664 640 641 665 0
-664 -572 640 641 0
-664 -572 -640 -641 0
-664 -640 -641 665 0
664 572 -665 0
664 572 640 -641 0
664 572 -640 641 0
664 640 -641 -665 0
664 -640 641 -665 0
-665 -571 667 0
-665 -571 666 0
-665 666 667 0
665 -666 -667 0
665 571 -667 0
665 571 -666 0
666 -457 634 0
666 457 -634 0
-666 457 634 0
-666 -457 -634 0
-667 -569 638 0
-667 567 -569 0
-667 567 638 0
667 -567 569 0
667 569 -638 0
667 -567 -638 0
668 636 -642 0
668 -636 642 0
-668 -636 -642 0
-668 636 642 0
669 628 -644 0
669 -628 644 0
-669 -628 -644 0
-669 628 644 0
670 -657 -658 0
-670 657 0
-670 658 0
671 -540 672 0
-671 540 0
-671 -672 0
672 -602 603 0
672 602 -603 0
-672 602 603 0
-672 -602 -603 0
673 540 -672 0
-673 -540 0
-673 672 0
674 -534 675 0
-674 534 0
-674 -675 0
675 -676 678 0
675 676 -678 0
-675 676 678 0
-675 -676 -678 0
676 -600 677 0
676 600 -677 0
-676 600 677 0
-676 -600 -677 0
-677 4 577 0
-677 -4 -577 0
677 -4 577 0
677 4 -577 0
-678 679 680 0
678 -679 0
678 -680 0
679 -595 -596 0
-679 595 0
-679 596 0
680 -594 -597 0
-680 594 0
-680 597 0
-681 682 686 0
-681 685 686 0
681 -686 0
681 -682 -685 0
-682 683 684 0
682 -683 0
682 -684 0
683 -600 -677 0
-683 600 0
-683 677 0
684 -676 -678 0
-684 676 0
-684 678 0
685 -576 596 0
685 576 -596 0
-685 576 596 0
-685 -576 -596 0
686 -4 577 0
-686 4 0
-686 -577 0
-687 688 689 0
-687 -530 686 688 0
687 -688 0
687 530 -689 0
687 -686 -689 0
688 534 -675 0
-688 -534 0
-688 675 0
-689 682 685 0
689 -682 0
689 -685 0
690 -473 681 0
690 -530 681 689 0
-690 -681 0
-690 473 -689 0
-690 473 530 0
-707 0
2 0

